77      4       
10      10      10      10      
0       0       0       0       0       18      2       3       4       5       6       7       8       9       10      11      12      13      17      19      20      22      24      29      
3       5       6       6       6       10      15      16      21      26      30      33      36      37      39      40      
7       5       4       5       6       9       16      18      33      34      36      37      39      40      41      
10      10      9       10      5       9       15      21      25      28      33      36      37      39      40      
2       6       8       3       10      8       15      16      30      34      36      37      39      40      
8       5       4       10      10      6       14      21      36      39      40      42      
10      9       7       7       10      8       16      26      27      30      33      37      41      46      
4       6       6       9       7       7       16      23      34      37      39      40      46      
4       10      6       7       10      6       15      16      21      33      37      40      
10      6       5       8       6       6       15      16      31      34      37      40      
7       7       9       5       8       8       16      34      36      37      39      41      42      46      
4       6       10      5       7       6       16      33      37      40      41      46      
3       9       7       8       7       4       16      37      40      41      
10      7       5       10      10      8       25      32      35      37      38      41      43      46      
4       10      7       4       5       11      35      38      41      42      43      44      45      46      48      52      57      
9       9       9       8       4       8       25      35      38      43      45      47      48      57      
3       3       9       6       5       7       31      35      38      40      43      47      48      
7       3       10      10      6       6       30      31      42      43      47      50      
10      8       3       8       8       10      36      40      43      44      45      46      47      53      57      76      
7       10      6       10      6       12      34      38      44      45      50      51      52      53      56      57      58      61      
5       10      7       9       7       10      41      43      44      45      46      48      52      53      56      57      
1       7       8       7       9       7       30      38      44      45      54      56      57      
3       5       8       8       7       7       41      42      43      48      53      55      57      
5       6       10      6       7       9       43      47      48      51      55      57      58      60      76      
10      7       10      7       7       10      44      50      51      52      53      54      56      61      71      76      
6       8       9       9       8       8       44      47      48      51      52      58      74      76      
8       6       9       7       9       8       42      47      49      54      57      58      60      76      
2       7       6       10      8       6       44      46      47      52      53      74      
4       1       10      8       10      6       38      44      46      56      57      74      
3       9       9       8       10      10      48      49      51      52      55      58      71      74      75      76      
1       7       6       7       5       8       44      52      53      56      57      58      71      74      
10      3       10      7       6       8       45      50      51      54      57      60      75      76      
8       9       10      5       6       11      48      49      51      54      55      56      70      71      72      73      76      
6       7       7       10      8       12      49      54      55      59      60      64      70      71      73      74      75      76      
2       8       9       3       10      10      50      51      54      55      58      61      69      71      75      76      
2       9       10      10      8       10      49      51      54      55      61      70      71      72      73      75      
7       10      10      10      10      11      54      55      57      59      61      64      69      70      72      74      75      
4       7       4       6       8       12      49      59      60      64      65      66      70      71      72      73      75      76      
6       7       8       5       5       7       47      55      58      59      69      70      75      
4       10      5       10      6       9       49      55      58      60      65      66      70      71      72      
1       8       7       9       9       8       49      51      61      66      70      71      72      76      
1       3       9       4       8       10      51      56      66      68      69      70      71      72      74      75      
8       10      9       10      6       8       49      54      59      70      72      73      74      75      
5       10      4       6       6       10      49      55      63      64      65      66      70      72      73      75      
4       7       4       8       6       9       55      64      65      66      68      69      70      71      72      
8       10      9       6       10      6       51      62      67      68      71      72      
1       7       9       6       10      7       56      61      63      65      66      67      71      
8       10      7       10      8       5       59      61      64      65      66      
5       8       4       9       10      4       62      67      68      69      
6       5       8       7       8       4       62      63      67      74      
7       4       8       10      8       3       59      64      65      
5       8       10      8       3       3       60      70      72      
1       6       10      10      10      3       60      66      68      
7       8       10      8       7       3       62      65      66      
2       5       7       9       9       2       62      67      
8       7       8       4       7       2       62      64      
8       8       9       9       6       2       68      73      
3       9       8       5       4       2       64      73      
4       10      7       3       8       1       63      
7       8       3       9       10      1       63      
8       2       5       8       7       1       62      
6       10      4       10      10      1       77      
5       10      7       9       7       1       77      
6       10      7       8       7       1       77      
2       10      8       6       5       1       77      
5       6       4       10      6       1       77      
9       10      10      7       10      1       77      
9       8       5       6       7       1       77      
10      4       10      10      7       1       77      
3       10      10      5       6       1       77      
1       9       7       7       7       1       77      
7       9       9       8       10      1       77      
6       6       8       7       8       1       77      
3       10      8       10      8       1       77      
3       10      10      5       5       1       77      
6       10      5       5       9       1       77      
0       0       0       0       0       0       
